
Gurobi 10.0.1 (linux64) logging started Sun Nov 26 15:38:26 2023

Set parameter LogFile to value "ArtificialInstance/ExperimentV2/S4T5K3/BaSp/gurobi1.txt"
Gurobi Optimizer version 10.0.1 build v10.0.1rc0 (linux64)

CPU model: AMD EPYC 7H12 64-Core Processor, instruction set [SSE2|AVX|AVX2]
Thread count: 128 physical cores, 128 logical processors, using up to 32 threads

Academic license 656792 - for non-commercial use only - registered to b.___@student.vu.nl
Optimize a model with 6620 rows, 10000 columns and 34240 nonzeros
Model fingerprint: 0xfef14ce9
Variable types: 0 continuous, 10000 integer (10000 binary)
Coefficient statistics:
  Matrix range     [1e+00, 1e+00]
  Objective range  [9e-01, 2e+01]
  Bounds range     [1e+00, 1e+00]
  RHS range        [1e+00, 1e+00]
Found heuristic solution: objective 641.0328958
Presolve time: 0.05s
Presolved: 6620 rows, 10000 columns, 34240 nonzeros
Variable types: 0 continuous, 10000 integer (10000 binary)

Root relaxation: objective 5.382560e+01, 7713 iterations, 0.18 seconds (0.13 work units)

    Nodes    |    Current Node    |     Objective Bounds      |     Work
 Expl Unexpl |  Obj  Depth IntInf | Incumbent    BestBd   Gap | It/Node Time

     0     0   53.82560    0 1560  641.03290   53.82560  91.6%     -    0s
H    0     0                     440.9264403   53.82560  87.8%     -    0s
H    0     0                     167.0908113   53.82560  67.8%     -    0s
H    0     0                     103.2456430   60.01624  41.9%     -    1s
     0     0   60.01624    0 2264  103.24564   60.01624  41.9%     -    1s
H    0     0                     100.5168889   60.01624  40.3%     -    1s
     0     0   66.69728    0 2106  100.51689   66.69728  33.6%     -    1s
     0     0   66.95740    0 2012  100.51689   66.95740  33.4%     -    2s
     0     0   67.00088    0 1936  100.51689   67.00088  33.3%     -    2s
     0     0   67.00088    0 1936  100.51689   67.00088  33.3%     -    2s
     0     0   69.08508    0 1908  100.51689   69.08508  31.3%     -    2s
H    0     0                      98.7968704   69.08508  30.1%     -    2s
     0     0   69.09107    0 2171   98.79687   69.09107  30.1%     -    2s
     0     0   70.88753    0 1942   98.79687   70.88753  28.2%     -    3s
H    0     0                      96.6789164   70.99860  26.6%     -    3s
     0     0   70.99860    0 2180   96.67892   70.99860  26.6%     -    3s
H    0     0                      96.6171034   71.01316  26.5%     -    3s
     0     0   71.01316    0 2119   96.61710   71.01316  26.5%     -    3s
     0     0   71.01316    0 2109   96.61710   71.01316  26.5%     -    3s
     0     0   71.27726    0 2289   96.61710   71.27726  26.2%     -    3s
H    0     0                      95.9366193   71.27726  25.7%     -    3s
     0     0   71.46813    0 2201   95.93662   71.46813  25.5%     -    3s
     0     0   71.46904    0 2191   95.93662   71.46904  25.5%     -    3s
     0     0   72.38765    0 2219   95.93662   72.38765  24.5%     -    4s
     0     0   72.52680    0 2211   95.93662   72.52680  24.4%     -    4s
     0     0   72.52899    0 2203   95.93662   72.52899  24.4%     -    4s
H    0     0                      93.9980822   72.52899  22.8%     -    4s
     0     0   72.75695    0 2123   93.99808   72.75695  22.6%     -    4s
     0     0   72.78311    0 2013   93.99808   72.78311  22.6%     -    5s
     0     0   72.82123    0 2051   93.99808   72.82123  22.5%     -    5s
     0     0   72.82727    0 2044   93.99808   72.82727  22.5%     -    5s
     0     0   72.94277    0 2084   93.99808   72.94277  22.4%     -    5s
     0     0   72.97462    0 2050   93.99808   72.97462  22.4%     -    5s
     0     0   72.97733    0 2125   93.99808   72.97733  22.4%     -    5s
     0     0   73.17495    0 2100   93.99808   73.17495  22.2%     -    6s
H    0     0                      93.6148644   73.17495  21.8%     -    6s
H    0     0                      90.5894337   73.20322  19.2%     -    6s
     0     0   73.20322    0 2099   90.58943   73.20322  19.2%     -    6s
     0     0   73.20381    0 2103   90.58943   73.20381  19.2%     -    6s
     0     0   73.39672    0 2184   90.58943   73.39672  19.0%     -    6s
     0     0   73.40224    0 2076   90.58943   73.40224  19.0%     -    6s
     0     0   73.42685    0 2069   90.58943   73.42685  18.9%     -    6s
     0     0   73.42685    0 1920   90.58943   73.42685  18.9%     -    7s
H    0     0                      90.2491917   73.42685  18.6%     -    7s
H    0     0                      86.9718906   73.42685  15.6%     -    9s
     0     2   73.42685    0 1920   86.97189   73.42685  15.6%     -    9s
     3     8   73.86926    2 1710   86.97189   73.60772  15.4%  1820   10s
H  124   118                      86.2967056   75.67404  12.3%  1530   13s
   336   203   79.83978   13 1602   86.29671   75.67404  12.3%  1016   15s
H  399   218                      86.2046888   75.67404  12.2%   924   16s
  1316   393   82.26207   18  938   86.20469   76.01905  11.8%   619   20s
* 1559   441              37      85.9322617   76.01905  11.5%   598   21s
  2026   500   80.44817   10 1627   85.93226   76.58934  10.9%   549   30s
  4282   360     cutoff   15        85.93226   80.09399  6.79%   459   35s

Cutting planes:
  Gomory: 10
  Zero half: 561
  RLT: 641

Explored 5067 nodes (2280978 simplex iterations) in 36.31 seconds (32.19 work units)
Thread count was 32 (of 128 available processors)

Solution count 10: 85.9323 86.2047 86.2967 ... 96.6171

Optimal solution found (tolerance 1.00e-04)
Best objective 8.593226171364e+01, best bound 8.593226171364e+01, gap 0.0000%
